p cnf 14 59
-3 -13 -14 0
-5 -13 -14 0
3 4 12 0
-1 -8 -13 0
-6 7 11 0
-6 7 -8 0
6 -9 -13 0
1 -10 11 0
2 8 -13 0
1 -8 10 0
3 -5 -10 0
-5 -12 -13 0
6 8 -13 0
-2 -11 14 0
-10 -12 14 0
3 6 -13 0
-5 -6 12 0
1 -6 12 0
-1 -7 14 0
-9 -10 12 0
-8 9 13 0
-2 9 11 0
1 2 6 0
7 -11 -12 0
-2 6 12 0
7 8 -11 0
-3 5 10 0
1 3 -11 0
2 6 7 0
4 -9 14 0
3 4 13 0
-3 -8 12 0
-5 -8 -12 0
-5 -6 -10 0
1 -5 -14 0
8 9 11 0
5 11 12 0
-10 11 12 0
4 -8 -12 0
3 -4 -13 0
1 5 9 0
-4 -7 -12 0
-3 -6 -13 0
-1 -5 -9 0
-1 -3 4 0
5 -9 13 0
8 -10 13 0
2 4 -9 0
6 12 -14 0
-4 9 -11 0
2 -9 -13 0
4 10 13 0
2 -8 -10 0
-1 -7 13 0
-4 6 8 0
7 10 -11 0
-1 -7 -11 0
5 7 -10 0
2 4 -13 0
